#######################################
### Exact MIP solver for the HHCRSP ###
#######################################
-- Instance file: new-instances/HHCRSP_100_20_38_1.2_C_C.txt
-- Max threads: 4
-- Time limit: 999999 seconds
-- Use initial solution: No
Trivial flow violations prevented generating 48230 variables.
Model exported.
Version identifier: 20.1.0.0 | 2020-11-10 | 9bedb6d68
CPXPARAM_Threads                                 4
CPXPARAM_TimeLimit                               999999
Parallel mode: deterministic, using up to 4 threads for concurrent optimization:
 * Starting dual Simplex on 1 thread...
 * Starting Barrier on 3 threads...
Tried aggregator 1 time.
LP Presolve eliminated 6186 rows and 1550 columns.
Reduced LP has 62950 rows, 59976 columns, and 790097 nonzeros.
Presolve time = 0.68 sec. (199.28 ticks)
Symmetry aggregator did 84080 additional substitutions.
Initializing dual steep norms . . .

Iteration log . . .
Iteration:     1   Dual objective     =             0.333333
Iteration:   447   Dual objective     =           149.333333

Dual crossover.
  Dual:  Fixing 330 variables.
      329 DMoves:  Infeasibility  2.39253064e-13  Objective  1.49333333e+02
        0 DMoves:  Infeasibility  8.78741541e-14  Objective  1.49333333e+02
  Dual:  Pushed 9, exchanged 321.
  Primal:  Fixing 180 variables.
      179 PMoves:  Infeasibility  4.71844785e-16  Objective  1.49333333e+02
        0 PMoves:  Infeasibility  4.71844785e-16  Objective  1.49333333e+02
  Primal:  Pushed 132, exchanged 48.

Dual simplex solved model.


Solution status from MIP model:
-- Processing time: 1.084 sec.
-- Memory used: 127.62 MB
-- Best bound: inf
-- Obj value: 149.333
-- Gap: inf%
-- Total distance: 448
-- Total tardiness: 0
-- Largest tardiness: 0
